%block lattice_abc
Ang
3.37238 3.37238 3.37238
90   90   90
%endblock lattice_abc

%block positions_frac
Li 0   0   0
Li 0.5 0.5 0.5
%endblock positions_frac

kpoints_mp_grid 8 8 8
symmetry_generate
