%block lattice_abc
3.062080 3.062080 3.062080
60 60 60
%endblock lattice_abc

%block positions_frac
Si 0    0    0
C  0.25 0.25 0.25
%endblock positions_frac

kpoint_mp_grid 4 4 4
symmetry_generate
