%block lattice_cart
2.47271502882 0 0
0 4.94543005765 0
0 0 1.60726476874
%endblock lattice_cart

%block positions_frac
Fe 0   0   0
Fe 0.5 0.5 0.5
%endblock positions_frac

kpoint_mp_spacing 0.05
symmetry_generate