&CONTROL
  calculation = 'scf',
  tprnfor = .true.,
  tstress = .true.,
  pseudo_dir = "../"
/
&SYSTEM
  ibrav = 0,
  nat   = 2,
  ntyp = 2,
  ecutwfc = 20
/
&ELECTRONS
/

ATOMIC_SPECIES
  Si  1.0 si.UPF
  C  1.0 c.UPF

CELL_PARAMETERS (angstrom)
3.05196448142 -0.0277003351663 -0.019365504849
1.50296092359 2.65666697001 -0.0172543576521
1.50119603304 0.868061844884 2.51171941336

ATOMIC_POSITIONS (crystal)
Si 0 0 0
C  0.253650816703 0.254119724094 0.253857635916

K_POINTS automatic
  3 3 3 1 1 1
