%block lattice_cart
2.699 0 0
0 2.699 0
0 0 2.699
%endblock lattice_cart

%block positions_frac
Fe 0 0 0
Fe 0.5 0.5 0.5
%endblock positions_frac

symmetry_generate
kpoint_mp_spacing 0.05
